122 5
10 10 10 10 10 

0 0 0 0 0 0 5 2 14 26 38 50 
0 0 0 0 0 0 5 3 4 6 11 12 
7 0 0 0 1 0 4 10 7 5 70 
2 0 0 0 3 0 2 9 7 
4 0 0 0 3 0 1 8 
1 0 0 0 6 0 1 7 
8 0 0 0 5 0 1 13 
2 0 0 0 6 0 1 13 
1 0 0 0 6 0 1 13 
5 0 0 0 8 0 1 13 
8 0 0 0 4 0 1 13 
2 0 0 0 8 0 1 13 
0 0 0 0 0 0 1 62 
0 0 0 0 0 0 4 15 16 18 19 
4 0 0 3 0 0 4 23 20 17 40 
7 0 0 5 0 0 2 20 17 
5 0 0 5 0 0 3 24 22 21 
9 0 0 2 0 0 3 23 22 21 
6 0 0 4 0 0 2 23 21 
5 0 0 4 0 0 1 21 
5 0 0 5 0 0 1 25 
3 0 0 8 0 0 1 25 
9 0 0 4 0 0 1 25 
1 0 0 10 0 0 1 25 
0 0 0 0 0 0 1 62 
0 0 0 0 0 0 6 27 28 29 30 31 36 
10 1 0 0 0 0 3 35 34 32 
8 7 0 0 0 0 2 34 32 
5 9 0 0 0 0 1 32 
5 7 0 0 0 0 1 32 
9 4 0 0 0 0 1 32 
9 4 0 0 0 0 1 33 
1 5 0 0 0 0 1 37 
5 3 0 0 0 0 2 37 40 
3 4 0 0 0 0 1 37 
5 6 0 0 0 0 1 37 
0 0 0 0 0 0 1 62 
0 0 0 0 0 0 5 39 40 42 43 48 
3 0 1 0 0 0 3 47 41 81 
6 0 3 0 0 0 1 41 
8 0 2 0 0 0 1 44 
8 0 9 0 0 0 1 46 
10 0 7 0 0 0 1 45 
4 0 6 0 0 0 1 49 
10 0 7 0 0 0 1 49 
6 0 8 0 0 0 1 49 
6 0 4 0 0 0 1 49 
3 0 3 0 0 0 1 49 
0 0 0 0 0 0 1 62 
0 0 0 0 0 0 2 51 52 
3 1 0 0 0 0 2 60 54 
2 7 0 0 0 0 1 53 
3 3 0 0 0 0 6 60 59 58 57 56 55 
8 3 0 0 0 0 5 59 58 57 56 55 
5 4 0 0 0 0 1 61 
8 6 0 0 0 0 1 61 
5 7 0 0 0 0 1 61 
2 3 0 0 0 0 1 61 
3 8 0 0 0 0 1 61 
1 8 0 0 0 0 1 61 
0 0 0 0 0 0 1 62 
0 0 0 0 0 0 2 63 75 
0 0 0 0 0 0 5 64 65 66 67 70 
6 0 0 1 0 0 3 72 69 68 
1 0 0 4 0 0 3 73 72 71 
8 0 0 2 0 0 2 72 68 
9 0 0 6 0 0 2 72 71 
7 0 0 6 0 0 1 71 
5 0 0 8 0 0 1 71 
5 0 0 6 0 0 1 71 
4 0 0 4 0 0 1 74 
10 0 0 8 0 0 1 74 
9 0 0 5 0 0 1 74 
0 0 0 0 0 0 1 87 
0 0 0 0 0 0 4 76 78 79 80 
7 0 0 1 0 0 4 85 84 83 77 
8 0 0 7 0 0 2 82 81 
4 0 0 4 0 0 2 84 82 
5 0 0 6 0 0 1 83 
3 0 0 7 0 0 1 81 
1 0 0 5 0 0 1 86 
6 0 0 6 0 0 1 86 
7 0 0 4 0 0 1 86 
8 0 0 4 0 0 1 86 
6 0 0 6 0 0 1 86 
0 0 0 0 0 0 1 87 
0 0 0 0 0 0 5 88 89 91 92 93 
5 0 0 0 0 1 2 96 90 
8 0 0 0 0 3 3 96 95 94 
3 0 0 0 0 5 2 95 94 
10 0 0 0 0 2 2 96 95 
1 0 0 0 0 10 1 97 
2 0 0 0 0 10 1 94 
5 0 0 0 0 4 1 98 
10 0 0 0 0 6 1 98 
2 0 0 0 0 6 1 98 
3 0 0 0 0 3 1 98 
0 0 0 0 0 0 1 99 
0 0 0 0 0 0 5 100 101 102 105 109 
2 0 0 0 1 0 2 104 103 
10 0 0 0 2 0 2 108 106 
7 0 0 0 8 0 2 107 106 
3 0 0 0 5 0 1 107 
2 0 0 0 4 0 1 106 
7 0 0 0 5 0 1 106 
3 0 0 0 5 0 1 110 
3 0 0 0 6 0 1 110 
7 0 0 0 8 0 1 110 
8 0 0 0 6 0 1 110 
0 0 0 0 0 0 1 111 
0 0 0 0 0 0 5 112 113 114 115 116 
3 0 1 0 0 0 3 121 118 117 
2 0 4 0 0 0 3 121 118 117 
4 0 4 0 0 0 2 121 119 
7 0 6 0 0 0 2 120 119 
2 0 6 0 0 0 2 120 119 
1 0 5 0 0 0 1 120 
2 0 7 0 0 0 1 119 
9 0 6 0 0 0 1 122 
10 0 8 0 0 0 1 122 
4 0 3 0 0 0 1 122 
0 0 0 0 0 0 0 
